data/CVRPLIB/Vrp-Set-XML100/instances/XML100_3111_11.vrp
NAME : XML100_3111_11
COMMENT : Generated by Queiroga, Sadykov, Uchoa, and Vidal (2021)
TYPE : CVRP
DIMENSION : 101
EDGE_WEIGHT_TYPE : EUC_2D
CAPACITY : 4
NODE_COORD_SECTION
1    0    0   
2    428  501 
3    314  463 
4    426  784 
5    718  205 
6    39   17  
7    6    423 
8    775  925 
9    499  478 
10   761  420 
11   86   732 
12   650  989 
13   653  437 
14   311  979 
15   609  762 
16   10   582 
17   957  860 
18   706  1   
19   67   602 
20   210  52  
21   223  780 
22   176  384 
23   521  209 
24   517  35  
25   674  346 
26   326  585 
27   431  756 
28   551  13  
29   312  837 
30   463  956 
31   667  426 
32   965  568 
33   295  145 
34   951  326 
35   281  451 
36   628  352 
37   806  611 
38   35   61  
39   305  954 
40   84   836 
41   535  49  
42   918  942 
43   33   978 
44   284  416 
45   463  780 
46   123  699 
47   89   485 
48   596  587 
49   773  117 
50   960  380 
51   878  761 
52   84   217 
53   983  360 
54   976  443 
55   820  466 
56   806  314 
57   363  428 
58   143  977 
59   28   100 
60   830  687 
61   819  666 
62   466  72  
63   289  324 
64   805  180 
65   39   106 
66   114  619 
67   755  433 
68   767  76  
69   312  663 
70   467  439 
71   760  533 
72   11   851 
73   395  842 
74   137  104 
75   787  846 
76   29   619 
77   476  85  
78   313  789 
79   732  997 
80   863  395 
81   142  723 
82   524  908 
83   804  432 
84   48   129 
85   990  167 
86   866  836 
87   944  359 
88   381  135 
89   427  893 
90   105  671 
91   197  183 
92   2    667 
93   546  794 
94   746  10  
95   604  202 
96   698  470 
97   607  977 
98   11   713 
99   756  196 
100  510  267 
101  560  360 
DEMAND_SECTION
1    0   
2    1   
3    1   
4    1   
5    1   
6    1   
7    1   
8    1   
9    1   
10   1   
11   1   
12   1   
13   1   
14   1   
15   1   
16   1   
17   1   
18   1   
19   1   
20   1   
21   1   
22   1   
23   1   
24   1   
25   1   
26   1   
27   1   
28   1   
29   1   
30   1   
31   1   
32   1   
33   1   
34   1   
35   1   
36   1   
37   1   
38   1   
39   1   
40   1   
41   1   
42   1   
43   1   
44   1   
45   1   
46   1   
47   1   
48   1   
49   1   
50   1   
51   1   
52   1   
53   1   
54   1   
55   1   
56   1   
57   1   
58   1   
59   1   
60   1   
61   1   
62   1   
63   1   
64   1   
65   1   
66   1   
67   1   
68   1   
69   1   
70   1   
71   1   
72   1   
73   1   
74   1   
75   1   
76   1   
77   1   
78   1   
79   1   
80   1   
81   1   
82   1   
83   1   
84   1   
85   1   
86   1   
87   1   
88   1   
89   1   
90   1   
91   1   
92   1   
93   1   
94   1   
95   1   
96   1   
97   1   
98   1   
99   1   
100  1   
101  1   
DEPOT_SECTION
1
-1
EOF
