data/CVRPLIB/Vrp-Set-XML100/solutions/XML100_3111_11.sol
Route #1: 37 64 83 58
Route #2: 61 76 40 23
Route #3: 11 78 7 74
Route #4: 15 75 18 65
Route #5: 4 98 63 48
Route #6: 85 41 16 50
Route #7: 69 8 1 56
Route #8: 91 97 10 89
Route #9: 77 72 3 26
Route #10: 86 52 33 84
Route #11: 44 92 14 47
Route #12: 67 93 17 27
Route #13: 9 82 79 55
Route #14: 32 99 22 87
Route #15: 49 53 31 54
Route #16: 70 36 60 59
Route #17: 71 42 57 39
Route #18: 28 13 38 20
Route #19: 34 2 43 62
Route #20: 51 21 46 6
Route #21: 88 29 96 81
Route #22: 25 68 80 45
Route #23: 94 24 35 100
Route #24: 5 19 90 73
Route #25: 30 66 95 12
Cost 42559
